c instance by G2
c solution = 100110011011001
c Known solution cost is 793 
p cnf 15 30
w 98 68 70 87 50 92 62 64 2 50 0 53 20 54 23
8 -12 3 0
-5 1 -12 0
-1 -14 -9 0
-15 -4 -10 0
12 -15 7 0
2 10 -3 0
12 10 -11 0
5 13 -11 0
-8 -7 -12 0
-11 7 -2 0
7 -4 -6 0
10 -9 -3 0
5 11 15 0
-9 -15 -14 0
-15 -7 5 0
14 -15 9 0
14 -12 1 0
-5 4 -7 0
10 -13 -1 0
-4 -8 12 0
6 -12 15 0
13 -4 -7 0
10 -1 -6 0
-4 -15 11 0
-6 13 -9 0
15 7 -4 0
-12 -15 4 0
-6 9 -1 0
-9 5 -6 0
-10 -4 -6 0
